12° run output:
{
    "Function": "kroB300.tsp",
    "Problem dimension": [
        99,
        273,
        100,
        31,
        293,
        67,
        79,
        11,
        22,
        142,
        25,
        110,
        39,
        165,
        253,
        52,
        148,
        172,
        153,
        224,
        196,
        9,
        121,
        228,
        40,
        32,
        144,
        78,
        178,
        193,
        204,
        24,
        214,
        3,
        205,
        81,
        270,
        139,
        176,
        51,
        46,
        187,
        41,
        206,
        13,
        21,
        258,
        61,
        116,
        72,
        69,
        169,
        220,
        272,
        146,
        70,
        86,
        222,
        44,
        158,
        167,
        177,
        166,
        34,
        93,
        221,
        210,
        129,
        237,
        134,
        49,
        215,
        76,
        105,
        152,
        276,
        168,
        189,
        48,
        28,
        257,
        294,
        20,
        200,
        98,
        239,
        277,
        57,
        241,
        275,
        145,
        45,
        223,
        225,
        238,
        162,
        115,
        56,
        242,
        126,
        2,
        96,
        94,
        19,
        80,
        92,
        7,
        217,
        213,
        156,
        65,
        262,
        150,
        147,
        289,
        192,
        64,
        256,
        255,
        140,
        138,
        203,
        15,
        108,
        125,
        284,
        174,
        299,
        188,
        122,
        8,
        287,
        183,
        263,
        54,
        143,
        73,
        53,
        36,
        290,
        246,
        163,
        133,
        10,
        107,
        66,
        4,
        123,
        84,
        141,
        271,
        244,
        135,
        247,
        171,
        27,
        218,
        77,
        154,
        1,
        285,
        109,
        195,
        259,
        97,
        33,
        208,
        181,
        82,
        229,
        29,
        286,
        5,
        173,
        298,
        128,
        59,
        280,
        175,
        89,
        75,
        136,
        161,
        191,
        291,
        17,
        101,
        236,
        194,
        50,
        234,
        43,
        219,
        182,
        235,
        216,
        18,
        111,
        199,
        104,
        232,
        12,
        102,
        71,
        114,
        240,
        118,
        159,
        23,
        151,
        90,
        250,
        243,
        55,
        103,
        201,
        127,
        184,
        132,
        245,
        295,
        283,
        0,
        112,
        227,
        269,
        211,
        278,
        58,
        157,
        231,
        160,
        60,
        179,
        74,
        149,
        91,
        260,
        26,
        6,
        14,
        226,
        261,
        190,
        282,
        106,
        198,
        180,
        197,
        38,
        137,
        85,
        68,
        131,
        296,
        279,
        119,
        155,
        265,
        124,
        37,
        170,
        88,
        164,
        292,
        83,
        42,
        212,
        274,
        47,
        202,
        62,
        264,
        186,
        207,
        249,
        117,
        120,
        267,
        30,
        16,
        266,
        35,
        209,
        281,
        251,
        268,
        130,
        185,
        113,
        288,
        63,
        252,
        233,
        87,
        297,
        95,
        248,
        254,
        230
    ],
    "Global Optimum": 0,
    "Algorithm": "Genetic algorithm",
    "Parameters": {
        "population": 30,
        "offspring": 30,
        "mutation probability": 0.0033333333333333335,
        "crossover probability": 0.9
    },
    "Fitness": 257145,
    "Solution": [
        99,
        273,
        100,
        31,
        293,
        67,
        79,
        11,
        22,
        142,
        25,
        110,
        39,
        165,
        253,
        52,
        148,
        172,
        153,
        224,
        196,
        9,
        121,
        228,
        40,
        32,
        144,
        78,
        178,
        193,
        204,
        24,
        214,
        3,
        205,
        81,
        270,
        139,
        176,
        51,
        46,
        187,
        41,
        206,
        13,
        21,
        258,
        61,
        116,
        72,
        69,
        169,
        220,
        272,
        146,
        70,
        86,
        222,
        44,
        158,
        167,
        177,
        166,
        34,
        93,
        221,
        210,
        129,
        237,
        134,
        49,
        215,
        76,
        105,
        152,
        276,
        168,
        189,
        48,
        28,
        257,
        294,
        20,
        200,
        98,
        239,
        277,
        57,
        241,
        275,
        145,
        45,
        223,
        225,
        238,
        162,
        115,
        56,
        242,
        126,
        2,
        96,
        94,
        19,
        80,
        92,
        7,
        217,
        213,
        156,
        65,
        262,
        150,
        147,
        289,
        192,
        64,
        256,
        255,
        140,
        138,
        203,
        15,
        108,
        125,
        284,
        174,
        299,
        188,
        122,
        8,
        287,
        183,
        263,
        54,
        143,
        73,
        53,
        36,
        290,
        246,
        163,
        133,
        10,
        107,
        66,
        4,
        123,
        84,
        141,
        271,
        244,
        135,
        247,
        171,
        27,
        218,
        77,
        154,
        1,
        285,
        109,
        195,
        259,
        97,
        33,
        208,
        181,
        82,
        229,
        29,
        286,
        5,
        173,
        298,
        128,
        59,
        280,
        175,
        89,
        75,
        136,
        161,
        191,
        291,
        17,
        101,
        236,
        194,
        50,
        234,
        43,
        219,
        182,
        235,
        216,
        18,
        111,
        199,
        104,
        232,
        12,
        102,
        71,
        114,
        240,
        118,
        159,
        23,
        151,
        90,
        250,
        243,
        55,
        103,
        201,
        127,
        184,
        132,
        245,
        295,
        283,
        0,
        112,
        227,
        269,
        211,
        278,
        58,
        157,
        231,
        160,
        60,
        179,
        74,
        149,
        91,
        260,
        26,
        6,
        14,
        226,
        261,
        190,
        282,
        106,
        198,
        180,
        197,
        38,
        137,
        85,
        68,
        131,
        296,
        279,
        119,
        155,
        265,
        124,
        37,
        170,
        88,
        164,
        292,
        83,
        42,
        212,
        274,
        47,
        202,
        62,
        264,
        186,
        207,
        249,
        117,
        120,
        267,
        30,
        16,
        266,
        35,
        209,
        281,
        251,
        268,
        130,
        185,
        113,
        288,
        63,
        252,
        233,
        87,
        297,
        95,
        248,
        254,
        230
    ],
    "Nb of functions evaluations": 400020,
    "Computational time in seconds": 675.3200905323029,
    "Stopping criterion in evaluations": 400000
}